NAME : 18.80406.tour
COMMENT : Length = 80406
COMMENT : Found by LKH-3 [Keld Helsgaun] Thu Jun 19 18:16:29 2025
TYPE : TOUR
DIMENSION : 100
TOUR_SECTION
1
2
66
31
18
6
99
60
88
67
90
79
11
98
20
39
5
8
57
74
68
86
45
80
71
100
19
78
81
17
25
53
38
94
3
96
49
54
35
92
42
37
62
34
75
32
30
65
16
7
76
46
43
93
73
44
24
85
36
48
95
14
77
89
82
23
9
21
87
40
41
4
52
55
56
33
50
84
13
58
26
91
15
12
61
28
83
97
47
22
70
59
27
64
63
51
69
10
72
29
-1
EOF
